LAMMPS (15 May 2015)
WARNING: OMP_NUM_THREADS environment is not set. (../comm.cpp:89)
  using 1 OpenMP thread(s) per MPI task
Reading data file ...
  orthogonal box = (0 -5 -5) to (597.661 17.78 619.812)
  64 by 2 by 64 MPI processor grid
  reading atoms ...
  20388 atoms
17184 atoms in group free
2844 atoms in group anglesx
24 atoms in group forced
17208 atoms in group moving
3180 atoms in group static
WARNING: Resetting reneighboring criteria during minimization (../min.cpp:168)
Neighbor list info ...
  2 neighbor list requests
  update every 1 steps, delay 0 steps, check yes
  master list distance cutoff = 12.2
Setting up minimization ...
Memory usage per processor = 4.80521 Mbytes
Step Temp E_pair E_mol TotEng Press Volume 
       0            0   -142769.19            0   -142769.19   -2138.5785    8506641.2 
    1731            0   -143192.88            0   -143192.88     36.17932    8276764.3 
Loop time of 53.5735 on 8192 procs (8192 MPI x 1 OpenMP) for 1731 steps with 20388 atoms

Minimization stats:
  Stopping criterion = linesearch alpha is zero
  Energy initial, next-to-last, final = 
        -142769.193159      -143192.88445      -143192.88445
  Force two-norm initial, final = 25405.4 64.3315
  Force max component initial, final = 22183.9 38.2094
  Final line search alpha, max atom move = 2.49591e-12 9.53674e-11
  Iterations, force evaluations = 1731 1804

Pair  time (%) = 1.59681 (2.9806)
Neigh time (%) = 0.0396598 (0.0740289)
Comm  time (%) = 2.35165 (4.38957)
Outpt time (%) = 0 (0)
Other time (%) = 49.5854 (92.5558)

Nlocal:    2.48877 ave 72 max 0 min
Histogram: 7808 0 0 0 2 102 152 0 50 78
Nghost:    99.4646 ave 1804 max 0 min
Histogram: 7552 0 0 2 254 0 0 1 255 128
Neighs:    0 ave 0 max 0 min
Histogram: 8192 0 0 0 0 0 0 0 0 0
FullNghs:  1132.38 ave 39476 max 0 min
Histogram: 7808 0 2 0 254 0 0 0 51 77

Total # of neighbors = 9276480
Ave neighs/atom = 454.997
Neighbor list builds = 6
Dangerous builds = 0
Neighbor list info ...
  2 neighbor list requests
  update every 1 steps, delay 10 steps, check yes
  master list distance cutoff = 12.2
Setting up run ...
Memory usage per processor = 3.75799 Mbytes
Step time PotEng KinEng Temp Pxx Pyy Pzz Pxy Pyz Pxz s11 s22 s33 s12 s23 s31 fdx fdy fdz cn 
    1731        1.731   -7.0233904  0.077552283          600    207.41619    209.51219    303.74707   -2.4590006   0.20491748  -0.46523133   -6152.1109   -6159.5263   -9627.9181    94.440522   -54.061786    1.3513552 -0.00047894784 0.0037734445 9.4101683e-07    2.8327448 
    2000            2   -6.9930016  0.047026475    363.83049   -543.60499   -162.61718     150.2636    3.5908445   -3.1764501   -2.3597388    21140.242    7430.0334   -3796.5701   -162.22106    63.349032    73.922415 -0.027671652   -0.0244142 -0.032822405    2.8327448 
    3000            3   -6.9934774  0.045931874    355.36187   -645.32257   -166.57924   -80.589136   -14.858075   -1.1329514   0.94937016    24886.439    7582.5154    3641.7847    543.30112    20.166999   -44.985966 -0.026026939 -0.025199259  -0.03131759    2.8327448 
    4000            4    -6.994671  0.046255005    357.86184   -472.80023     41.86483    47.812402    11.381813   -4.5612597      1.86043    18559.981   -21.579243   -562.85669   -382.24654    149.50387   -75.349637 -0.026121273 -0.026374447 -0.026500357    2.8327448 
    5000            5   -6.9952009  0.045637737    353.08622   -392.59657    117.50673     69.61983    34.296302   -3.7329823   -10.539218    15635.745   -2790.3695   -1294.1153    -1233.448    116.79145    362.00991 -0.027193373 -0.028205162 -0.025062972    2.8327448 
    6000            6   -6.9950866   0.04528304    350.34202    -454.4032    49.767247   -9.2041004   -37.814544   -2.9509297    1.6675376    17887.951   -294.21193    1278.8887    1381.2009    81.545714   -76.972134 -0.027708275 -0.027458628 -0.026316134    2.8327448 
    7000            7   -6.9956574  0.045018704    348.29693   -416.54357     4.625909    55.514398    34.349485   -3.0696009    1.5806998    16438.619    1330.1732   -775.97346   -1241.5134    93.329385   -71.691515 -0.026558889 -0.027141924 -0.024940125    2.8327448 
    8000            8   -6.9956503  0.044732273     346.0809   -419.72083    78.387344    20.640705   -5.4538911   -1.0770452   -3.5065195    16621.377   -1363.1992     375.4532    185.03775    19.261069    106.16591 -0.027200554 -0.025350554  -0.02643378    2.8327448 
    9000            9   -6.9955489  0.044693439    345.78045   -400.06067    59.038712     26.32574   -20.848575   -4.0920241  -0.75733921    15931.409   -660.10911      132.088    747.93191    131.10291     10.83657 -0.027610948 -0.026392066 -0.025035212    2.8327448 
   10000           10   -6.9956326   0.04503386    348.41419   -406.74773   -22.193034    42.544548    11.362905  -0.60815487    -2.207125    16171.976    2309.1134   -381.56545   -402.25517   0.83799567    60.551931 -0.026419272    -0.023138 -0.026768825    2.8327448 
   11000           11   -6.9955563   0.04489687    347.35434   -453.41212   -35.046889    27.523899   -9.9446698   -8.5806383   -4.7432405    17840.712    2774.8468    41.406961    357.48947    287.28315    160.39616 -0.024428478 -0.024636564 -0.026243729    2.8327448 
   11731       11.731   -6.9955279  0.044846815    346.96708   -453.68645   -3.1645179    36.460587   -14.735999   0.95142993  -0.93966285     17887.99     1605.878   -239.38072    545.99843   -57.678078    18.685968  -0.02514811 -0.026433129 -0.029027422    2.8327448 
Loop time of 383.533 on 8192 procs (8192 MPI x 1 OpenMP) for 10000 steps with 20388 atoms

Pair  time (%) = 9.63587 (2.51239)
Neigh time (%) = 0.890202 (0.232106)
Comm  time (%) = 14.9914 (3.90876)
Outpt time (%) = 2.25096 (0.586902)
Other time (%) = 355.765 (92.7598)

Nlocal:    2.48877 ave 77 max 0 min
Histogram: 7808 0 2 0 4 123 126 10 73 46
Nghost:    95.6055 ave 1823 max 0 min
Histogram: 7552 0 0 24 232 0 56 76 124 128
Neighs:    0 ave 0 max 0 min
Histogram: 8192 0 0 0 0 0 0 0 0 0
FullNghs:  1099.96 ave 40384 max 0 min
Histogram: 7808 0 2 46 207 1 0 8 72 48

Total # of neighbors = 9010854
Ave neighs/atom = 441.969
Neighbor list builds = 138
Dangerous builds = 0
WARNING: Temperature for fix modify is not for group all (../fix_nh.cpp:1349)
Setting up run ...
Memory usage per processor = 7.27357 Mbytes
Step time PotEng KinEng Temp Pxx Pyy Pzz Pxy Pyz Pxz s11 s22 s33 s12 s23 s31 fdx fdy fdz cn 
   11731       11.731   -6.9955279  0.044846815    346.96708   -453.68645   -3.1645179    36.460587   -14.735999   0.95142993  -0.93966285     17887.99     1605.878   -239.38072    545.99843   -57.678078    18.685968 -0.026165045 -0.025844518  -0.02673306    2.8327448 
   12000           12   -6.9960074  0.045303492    350.50026   -433.94521    43.853615    45.709941      14.2223   -1.1057552   -7.1958541    17090.868   -146.92699   -589.94771   -525.20428     7.835395    245.12839 -0.026466135 -0.025334852  -0.02632909    2.8327448 
   13000           13   -6.9959969  0.044976445    347.96999    -389.5073    30.043949    25.362391    1.6314822   -1.9860472    3.3009787    15428.618   -84.306151    182.63313   -51.381933    35.233835   -136.97754 -0.026313293 -0.026099789 -0.026552343    2.8327448 
   14000           14   -6.9960292   0.04469548    345.79624   -415.87846    72.974057     34.56774   -13.851412  -0.80433782    3.5426484    16406.615   -1593.7133   -162.70313    506.09888  -0.23795061   -144.79686 -0.025767791 -0.026483797 -0.026435139    2.8327448 
   15000           15   -6.9959091  0.044600785    345.06361   -409.06074    55.464104    36.824025   -9.2255815    7.1997191    4.1771756    16214.483   -556.89136   -221.67414    314.61018   -286.75848   -168.26913 -0.026479105 -0.026256127 -0.025480822    2.8327448 
   16000           16   -6.9959744  0.044822666    346.78024   -402.64234    67.758105    24.885749    3.7594859    1.0313571   -1.1569058    16012.051    -1224.234    180.75798   -154.32979   -56.284263    24.230628 -0.025405337 -0.026208382 -0.025965838    2.8327448 
   17000           17   -6.9959662   0.04499845    348.14024   -407.33663    30.240572     43.48318  -0.20104928    -7.225286   -1.5304517    16169.535   -166.65634   -507.10487    9.8700815    241.59952    35.943881 -0.025149197 -0.026062888  -0.02619795    2.8327448 
   18000           18   -6.9957399  0.044878699    347.21376   -418.87207    42.626372    28.515598    8.4515448    1.8576967  -0.68103564    16570.862   -241.02206    62.639223   -319.08415   -88.102079    11.531016 -0.026167234 -0.025411274 -0.026867523    2.8327448 
   19000           19   -6.9957151  0.044706991     345.8853   -422.50295    56.655722    26.403076    7.4589236   -3.3227296   -7.8911811    16778.416   -617.32202    80.846297   -256.69492    97.847875    273.95869 -0.025977857  -0.02561946 -0.027220747    2.8327448 
   20000           20   -6.9959444  0.044571678    344.83842    -385.9178   -26.880548    42.121052   -28.095379   -6.0209058   -1.4221068    15302.821    1980.5725   -396.31894    1033.5302    197.74878    32.776045 -0.026384996 -0.025494604 -0.026120863    2.8327448 
   21000           21    -6.996061  0.044603887    345.08762   -412.50779    73.550602    26.041877     11.72851  -0.32350694   -6.5110119    16297.842   -1648.2994     41.05388   -457.43926   -16.461655    221.78258 -0.026005321 -0.026566869 -0.025242048    2.8327448 
   21731       21.731   -6.9960467  0.044833617    346.86497   -378.44389    53.864827    37.791032     35.16156   -3.9213888   -12.836663    15060.911   -519.98162   -334.54554    -1254.485    118.69582    446.93566 -0.026669616 -0.026418935 -0.024933227    2.8327448 
Loop time of 390.061 on 8192 procs (8192 MPI x 1 OpenMP) for 10000 steps with 20388 atoms

Pair  time (%) = 9.70332 (2.48764)
Neigh time (%) = 0.891647 (0.228592)
Comm  time (%) = 15.2192 (3.90175)
Outpt time (%) = 2.43634 (0.624606)
Other time (%) = 361.81 (92.7574)

Nlocal:    2.48877 ave 84 max 0 min
Histogram: 7808 0 2 4 25 192 29 64 55 13
Nghost:    95.4828 ave 1887 max 0 min
Histogram: 7552 0 0 98 158 0 97 91 94 102
Neighs:    0 ave 0 max 0 min
Histogram: 8192 0 0 0 0 0 0 0 0 0
FullNghs:  1099.84 ave 44302 max 0 min
Histogram: 7808 1 12 122 114 8 5 54 56 12

Total # of neighbors = 9009910
Ave neighs/atom = 441.922
Neighbor list builds = 136
Dangerous builds = 0
System init for write_data ...
All done
