LAMMPS (15 May 2015)
WARNING: OMP_NUM_THREADS environment is not set. (../comm.cpp:89)
  using 1 OpenMP thread(s) per MPI task
Reading data file ...
  orthogonal box = (0 -5 -5) to (14.7571 601.4 619.78)
  2 by 64 by 64 MPI processor grid
  reading atoms ...
  23496 atoms
19848 atoms in group free
3288 atoms in group anglesx
30 atoms in group forced
19878 atoms in group moving
3618 atoms in group static
WARNING: Resetting reneighboring criteria during minimization (../min.cpp:168)
Neighbor list info ...
  2 neighbor list requests
  update every 1 steps, delay 0 steps, check yes
  master list distance cutoff = 12.2
Setting up minimization ...
Memory usage per processor = 4.81403 Mbytes
Step Temp E_pair E_mol TotEng Press Volume 
       0            0   -174811.69            0   -174811.69   -4883.4406      5590962 
     178            0   -175265.74            0   -175265.74    49.104749    5404755.6 
Loop time of 15.3693 on 8192 procs (8192 MPI x 1 OpenMP) for 178 steps with 23496 atoms

Minimization stats:
  Stopping criterion = linesearch alpha is zero
  Energy initial, next-to-last, final = 
        -174811.691011     -175265.736832     -175265.736832
  Force two-norm initial, final = 36486.5 6.12758
  Force max component initial, final = 25921 1.08362
  Final line search alpha, max atom move = 3.01448e-10 3.26654e-10
  Iterations, force evaluations = 178 220

Pair  time (%) = 0.311364 (2.02588)
Neigh time (%) = 0.163582 (1.06434)
Comm  time (%) = 0.622113 (4.04776)
Outpt time (%) = 0 (0)
Other time (%) = 14.2723 (92.862)

Nlocal:    2.86816 ave 102 max 0 min
Histogram: 7808 2 4 19 111 43 136 7 22 40
Nghost:    164.004 ave 3056 max 0 min
Histogram: 7552 0 6 10 240 8 12 4 240 120
Neighs:    0 ave 0 max 0 min
Histogram: 8192 0 0 0 0 0 0 0 0 0
FullNghs:  2067.3 ave 87588 max 0 min
Histogram: 7810 7 27 104 112 10 53 8 21 40

Total # of neighbors = 16935288
Ave neighs/atom = 720.773
Neighbor list builds = 10
Dangerous builds = 0
Neighbor list info ...
  2 neighbor list requests
  update every 1 steps, delay 10 steps, check yes
  master list distance cutoff = 12.2
Setting up run ...
Memory usage per processor = 3.79022 Mbytes
Step time PotEng KinEng Temp Pxx Pyy Pzz Pxy Pyz Pxz s11 s22 s33 s12 s23 s31 fdx fdy fdz cn 
     178        0.178   -7.4593861  0.038776393          300    181.82541    179.09239    326.56044   -2.0808577    2.2266162  -0.28550905   -1213.3277   -3535.1459    -6551.748    35.851788   -53.011231    5.2656263 -4.554974e-05 0.0019388906 4.6940034e-07    2.9964249 
    1000            1   -7.4383006  0.026904629    208.15213    110.39381    106.19461   -42.478331    24.684955  -0.05868667   -3.2714476    420.10807   -1909.1424    1190.3063    -590.0797   0.81162565    71.530354   -0.0167748 -0.022608151 -0.017367922    2.9964249 
    2000            2   -7.4350404  0.031009562    239.91062    124.43475    82.703175    49.267962     53.85663   -1.2478184    1.8849456    115.51175   -1342.1282    -433.9178     -1212.77    25.622024   -40.834376 -0.019216229 -0.024720399 -0.019343467    2.9964249 
    3000            3   -7.4324208  0.033226453    257.06197    104.04223    115.78238    37.552099    84.529615   -0.7007778    6.0802065    570.14251   -2119.4562   -181.20086   -1924.5755    14.771713   -139.25172 -0.022022106 -0.027501436 -0.021492749    2.9964249 
    4000            4   -7.4309499  0.035162231    272.03843    146.59787    94.516791    1.7468647     41.78777   -1.0959728    2.3806104   -417.80186   -1590.7168    415.48905   -989.20646    23.310332   -53.788002  -0.02363146 -0.019435386 -0.022884778    2.9964249 
    5000            5   -7.4297492  0.036524933    282.58121    134.23309    121.90012    85.606525    52.900716     7.478287   0.70413525   -135.95028   -2219.8277   -1197.5541   -1187.8973   -166.48694   -15.838186 -0.023552154  -0.02845775 -0.024391374    2.9964249 
    6000            6   -7.4285407  0.036998412    286.24435     129.6326    128.00383   -20.896003    25.196873    3.1558712    4.9137564   0.42625951   -2345.8682    922.02961   -590.90822   -75.298695   -115.02394 -0.026159132  -0.02715184 -0.025957001    2.9964249 
    7000            7   -7.4284062  0.037629132    291.12402    134.68962    193.06608    68.700904    8.5501183    3.5017621   -2.4172478   -134.67359   -3824.5041   -871.10706   -222.33083   -86.498118    51.069591 -0.025331667 -0.027143589 -0.024879731    2.9964249 
    8000            8   -7.4281478  0.038182831    295.40781     126.7854    167.57669    10.181526    23.654257   0.15795592    7.8736566    61.137758   -3300.5066    229.46628   -527.58854   -7.4854095   -180.49879 -0.025306052 -0.025740817  -0.02588717    2.9964249 
    9000            9   -7.4279369  0.038473458    297.65629    176.66492    115.50135     40.75961    20.741748    -1.476543    7.2163394   -1087.6174    -2084.026   -359.38573   -457.60417    37.200493   -158.00467 -0.025906567  -0.02512825 -0.025569713    2.9964249 
   10000           10   -7.4277024  0.038434479    297.35472    186.09868     104.2519    25.802042    37.864985    5.1976434    1.6041945   -1275.1234   -1803.1398   -70.146532   -883.68469   -123.82497   -31.956035  -0.02593922 -0.019976564 -0.025351751    2.9964249 
   11000           11   -7.4275469  0.038500137     297.8627    186.39846    100.66486    32.316858     51.12004    2.4097618   -5.9860342   -1319.0861   -1716.3975   -214.16556   -1209.2085   -59.843855    135.06253 -0.024934583 -0.027867813 -0.025921101    2.9964249 
   12000           12   -7.4274366  0.038593962    298.58859    162.53988    82.706299    30.274108    43.577719    4.1180554    1.4503311    -750.6326   -1338.5426   -110.01118   -986.58608   -95.575945   -36.849251 -0.025506193 -0.026311942 -0.025755978    2.9964249 
   13000           13   -7.4275399  0.038386129    296.98066    186.63656      102.276    23.403883    36.456949   0.50328105 -0.052314782   -1255.6152   -1733.0946     9.429237   -818.68437   -13.766017    1.2944912 -0.026441941 -0.022446903  -0.02556105    2.9964249 
   14000           14   -7.4276761  0.038345032     296.6627    125.98712    144.77471    35.734649    30.056172    6.1271483  0.064116741     55.56418    -2745.403   -190.53123   -709.57494   -145.85898   -6.8175433 -0.027433575 -0.028169904 -0.025987541    2.9964249 
   15000           15   -7.4275984  0.038616592    298.76368    147.63798    149.41301    30.804268    13.486086   -2.5840397   -4.8144308    -415.8086   -2798.7277   -130.71412    -329.3518    60.126843    107.70979 -0.026256159  -0.02002306 -0.026014842    2.9964249 
   16000           16   -7.4276795  0.038517868    297.99988    126.53964    154.79473    39.518086    27.939665    3.0703288   -2.0924017    71.613565   -2950.9607   -342.38264   -651.77334   -67.658611    42.948979 -0.025376046 -0.029553839 -0.026250643    2.9964249 
   17000           17    -7.427894  0.038854588    300.60497    170.52007    130.09408    25.571759   -6.9289861    4.8280861   -1.7851958    -929.3825   -2435.5611   -36.299331     114.4599   -118.04018    31.960128 -0.026044175 -0.032847353 -0.024740999    2.9964249 
   18000           18   -7.4274192  0.038411891    297.17997    119.35416    186.14769    24.527279    27.812511    9.9461209   -4.3733967    227.03841    -3694.598   -61.281038   -613.96486   -227.53704    100.74304 -0.025732535 -0.027818434  -0.02658955    2.9964249 
   19000           19   -7.4277604  0.038887679    300.86099    132.34575    160.18169    46.248137    47.409372  -0.76451525   -8.4934321   -64.256723   -3077.4484   -553.81375   -1058.4177    18.654258     197.7612 -0.027308303 -0.021613232 -0.025423814    2.9964249 
   20000           20   -7.4274471  0.038851132    300.57823    146.54731    109.66286    30.766446    46.391797    8.3533018    7.7364655    -398.5238   -1957.9691   -145.54472   -1037.9986    -190.7797   -174.28008 -0.027023178 -0.030383279 -0.025119871    2.9964249 
   20178       20.178   -7.4275177  0.039101855    302.51799     143.0437    108.42009    35.558203    9.8175159     5.102688   -10.790326    -328.6307   -1932.3686   -201.23415   -209.14125   -117.72012    243.26368 -0.025123718 -0.030420845 -0.026007885    2.9964249 
Loop time of 1217.22 on 8192 procs (8192 MPI x 1 OpenMP) for 20000 steps with 23496 atoms

Pair  time (%) = 32.0235 (2.63087)
Neigh time (%) = 1.09316 (0.0898079)
Comm  time (%) = 48.4404 (3.97959)
Outpt time (%) = 4.95871 (0.40738)
Other time (%) = 1130.7 (92.8924)

Nlocal:    2.86816 ave 88 max 0 min
Histogram: 7808 0 6 3 2 110 131 8 53 71
Nghost:    156.661 ave 2992 max 0 min
Histogram: 7552 0 4 12 240 8 14 122 120 120
Neighs:    0 ave 0 max 0 min
Histogram: 8192 0 0 0 0 0 0 0 0 0
FullNghs:  2041.74 ave 74760 max 0 min
Histogram: 7808 8 2 32 207 11 0 1 52 71

Total # of neighbors = 16725952
Ave neighs/atom = 711.864
Neighbor list builds = 63
Dangerous builds = 0
WARNING: Temperature for fix modify is not for group all (../fix_nh.cpp:1349)
Setting up run ...
Memory usage per processor = 7.30809 Mbytes
Step time PotEng KinEng Temp Pxx Pyy Pzz Pxy Pyz Pxz s11 s22 s33 s12 s23 s31 fdx fdy fdz cn 
   20178       20.178   -7.4275177  0.039101855    302.51799     143.0437    108.42009    35.558203    9.8175159     5.102688   -10.790326    -328.6307   -1932.3686   -201.23415   -209.14125   -117.72012    243.26368 -0.026248633 -0.027553404 -0.025672099    2.9964249 
   21000           21    -7.427229  0.038748622    299.78514    95.277258    14.282132    22.628593     24.25217   -5.3848534   -1.4230716    659.75494   -381.04448    69.473585   -553.04686    118.75257    27.235535 -0.027625366 -0.029426184 -0.026081099    2.9964249 
   22000           22   -7.4271329  0.038286424    296.20927    113.33223    8.4177916    34.535378    44.278075    2.6820105    3.2917794    285.19449   -191.67987   -237.43955   -974.06351   -65.066817   -79.586799 -0.026157367 -0.028715754 -0.026019466    2.9964249 
   23000           23   -7.4276652  0.038509057    297.93171    116.08047    39.652513    34.999331    50.877415     5.599909   0.54598828    251.86958   -719.25989   -279.12252   -1186.6705   -131.53876   -12.141816 -0.025716088 -0.027748483  -0.02575195    2.9964249 
   24000           24   -7.4274943  0.038537458    298.15144    153.14292    23.905057    32.691385    48.262521   -4.0166668   -3.1957661   -573.55427   -262.16178    -103.2124   -1142.7853    88.843453    72.372013 -0.027214776 -0.024446396 -0.025893692    2.9964249 
   25000           25   -7.4274695  0.038705224    299.44939    109.92438    10.936593    35.132323    49.542624   0.52558873   -9.7682102    378.27884   -268.01782   -188.87693   -1119.2958   -9.9958045    218.74325 -0.026182721 -0.027161534 -0.025583284    2.9964249 
   26000           26   -7.4273616  0.038746343    299.76751    136.01248    3.6098178     32.64185    35.795793    1.1512364   -6.0958052   -216.83882   -124.50547   -178.47094   -825.79719   -32.851634    137.10096 -0.025279356 -0.027523679 -0.025886547    2.9964249 
   27000           27   -7.4272215    0.0387549    299.83371    152.01991     106.9272    40.710265     39.97396    1.9503522   -7.7504133   -542.64233   -1834.3122   -398.55912   -905.69843   -51.118907     172.4817 -0.025389115 -0.028227936 -0.026067053    2.9964249 
   28000           28   -7.4269625  0.038606601    298.68638    121.02626    23.607071    22.043294    21.976832    3.4851797   -6.1907697    124.38501   -320.70023    43.937374     -501.785   -80.325009    138.47868 -0.025875445 -0.032217883 -0.026518735    2.9964249 
   29000           29   -7.4272019  0.038733019    299.66443    112.51734   -57.920402    39.225757    34.717296   0.18619932    5.3112918    303.98576    1269.5457   -275.02568   -806.75192  -0.18588596   -123.15477 -0.026896621  -0.02561965 -0.026100821    2.9964249 
2018-05-08 15:56:44.942 (WARN ) [0x400012091b0] :ibm.runjob.LogSignalInfo: received signal 24
2018-05-08 15:56:44.942 (WARN ) [0x400012091b0] :ibm.runjob.LogSignalInfo: signal sent from USER
2018-05-08 15:56:44.942 (WARN ) [0x400012091b0] :ibm.runjob.LogSignalInfo: sent from uid 0 (root)
